% Auto-generated by scripts/generate_dzn.py
% problem_type   = regex
% instance       = regex_19
% source_json    = instances_json/1_medium_blowup/regex_19.json
% blowup         = 7.6
% representation = DFA

mode = 0;

var_count = 24;
Q = 76;
S = 3;
q0 = 1;
F = {48, 49, 50, 51, 52, 53, 54, 55, 56, 57, 58, 59, 60, 61, 62, 63, 64, 65, 66, 67, 68, 69, 70, 71, 72, 73, 74, 75, 76};
d_dfa = array2d(1..76, 1..3, [
  1, 2, 1,
  3, 2, 1,
  1, 4, 1,
  7, 6, 5,
  8, 9, 8,
  10, 9, 8,
  8, 11, 8,
  12, 13, 12,
  14, 13, 12,
  12, 15, 12,
  18, 17, 16,
  19, 20, 19,
  21, 20, 19,
  19, 22, 19,
  25, 24, 23,
  26, 27, 26,
  28, 27, 26,
  26, 29, 26,
  30, 31, 30,
  32, 31, 30,
  30, 33, 30,
  36, 35, 34,
  37, 38, 37,
  39, 38, 37,
  37, 40, 37,
  41, 42, 41,
  43, 42, 41,
  41, 44, 41,
  47, 46, 45,
  48, 49, 48,
  50, 49, 48,
  48, 51, 48,
  54, 53, 52,
  55, 56, 55,
  57, 56, 55,
  55, 58, 55,
  59, 60, 59,
  61, 60, 59,
  59, 62, 59,
  65, 64, 63,
  66, 67, 66,
  68, 67, 66,
  66, 69, 66,
  72, 71, 70,
  73, 74, 73,
  75, 74, 73,
  73, 76, 73,
  1, 2, 1,
  3, 2, 1,
  1, 4, 1,
  7, 6, 5,
  8, 9, 8,
  10, 9, 8,
  8, 11, 8,
  12, 13, 12,
  14, 13, 12,
  12, 15, 12,
  18, 17, 16,
  19, 20, 19,
  21, 20, 19,
  19, 22, 19,
  25, 24, 23,
  26, 27, 26,
  28, 27, 26,
  26, 29, 26,
  30, 31, 30,
  32, 31, 30,
  30, 33, 30,
  36, 35, 34,
  37, 38, 37,
  39, 38, 37,
  37, 40, 37,
  41, 42, 41,
  43, 42, 41,
  41, 44, 41,
  47, 46, 45
]);
d_nfa = array2d(1..76, 1..3, [
  {}, {}, {},
  {}, {}, {},
  {}, {}, {},
  {}, {}, {},
  {}, {}, {},
  {}, {}, {},
  {}, {}, {},
  {}, {}, {},
  {}, {}, {},
  {}, {}, {},
  {}, {}, {},
  {}, {}, {},
  {}, {}, {},
  {}, {}, {},
  {}, {}, {},
  {}, {}, {},
  {}, {}, {},
  {}, {}, {},
  {}, {}, {},
  {}, {}, {},
  {}, {}, {},
  {}, {}, {},
  {}, {}, {},
  {}, {}, {},
  {}, {}, {},
  {}, {}, {},
  {}, {}, {},
  {}, {}, {},
  {}, {}, {},
  {}, {}, {},
  {}, {}, {},
  {}, {}, {},
  {}, {}, {},
  {}, {}, {},
  {}, {}, {},
  {}, {}, {},
  {}, {}, {},
  {}, {}, {},
  {}, {}, {},
  {}, {}, {},
  {}, {}, {},
  {}, {}, {},
  {}, {}, {},
  {}, {}, {},
  {}, {}, {},
  {}, {}, {},
  {}, {}, {},
  {}, {}, {},
  {}, {}, {},
  {}, {}, {},
  {}, {}, {},
  {}, {}, {},
  {}, {}, {},
  {}, {}, {},
  {}, {}, {},
  {}, {}, {},
  {}, {}, {},
  {}, {}, {},
  {}, {}, {},
  {}, {}, {},
  {}, {}, {},
  {}, {}, {},
  {}, {}, {},
  {}, {}, {},
  {}, {}, {},
  {}, {}, {},
  {}, {}, {},
  {}, {}, {},
  {}, {}, {},
  {}, {}, {},
  {}, {}, {},
  {}, {}, {},
  {}, {}, {},
  {}, {}, {},
  {}, {}, {},
  {}, {}, {}
]);
